NAME: tsp20-21
TYPE: TSP
DIMENSION: 20
EDGE_WEIGHT_TYPE: EUC_2D
NODE_COORD_SECTION
0 14 11
1 33 75
2 56 90
3 56 91
4 6 87
5 20 54
6 21 54
7 83 16
8 33 37
9 99 7
10 3 73
11 92 45
12 76 15
13 22 1
14 7 60
15 95 96
16 69 35
17 0 1
18 73 66
19 21 96
EOF